3 3 2
25 0 32 2 18 0 16 1 44 2 16 0 38 2 11 1 31 2 43 1 46 0 6 1 37 0 34 1 1 2 26 0 19 2 35 0 28 1 45 0 35 2 17 1 14 0 41 1 21 2 21 
25 0 48 1 20 2 28 0 5 2 2 1 26 0 6 1 38 2 15 1 20 0 6 2 38 1 35 2 24 0 42 1 40 2 39 1 20 2 17 0 27 2 44 1 6 2 15 0 6 1 30 
25 0 21 2 22 1 44 2 31 0 33 2 24 0 18 2 10 0 2 2 48 0 11 1 32 0 40 1 31 0 8 2 34 0 39 2 38 0 38 1 47 2 23 1 14 0 25 1 36 0 39 

-------------
